benchmarks/bfuzz0/2864541728946273143095912803317895531.smt2
(set-logic QF_FP)
(declare-const x0 (_ FloatingPoint 11 53))
(declare-const x1 (_ FloatingPoint 11 53))
(declare-const x2 (_ FloatingPoint 11 53))
(declare-const x3 (_ FloatingPoint 11 53))
(declare-const x4 (_ FloatingPoint 11 53))
(declare-const x5 (_ FloatingPoint 11 53))
(assert (fp.gt (fp.neg x4) (fp.neg x1)))
(assert (fp.leq (fp.div RNE x1 x1) (fp.div RNE x3 x4)))
(assert (fp.gt (fp.mul RNE x4 x5) (fp.neg x5)))
(assert (fp.eq (fp.mul RNE x0 x2) (fp.mul RNE x4 x5)))
(assert (fp.geq (fp.add RNE x4 x4) (fp.mul RNE x0 x0)))
(assert (fp.leq (fp.add RNE x1 x4) (fp.div RNE x0 x5)))
(assert (fp.gt (fp.mul RNE x4 x5) (fp.sub RNE x5 x3)))
(assert (fp.leq (fp.neg x5) (fp.neg x3)))
(assert (fp.leq (fp.div RNE x5 x1) (fp.mul RNE x0 x4)))
(assert (fp.lt (fp.mul RNE x5 x5) (fp.neg x3)))
(assert (fp.lt (fp.neg x0) (fp.mul RNE x1 x4)))
(assert (fp.lt (fp.div RNE x3 x0) (fp.div RNE x2 x4)))
(assert (fp.eq (fp.neg x5) (fp.div RNE x1 x3)))
(assert (fp.gt (fp.sub RNE x2 x0) (fp.sub RNE x3 x3)))
(check-sat)
