db/data/2864541728946273143095912803317895531.z3.out
unsat
-------------------
621.625016719
